NAME: random problem
TYPE: MTSP
COMMENT: MTSP problem for MRS UAV summer school
DIMENSION: 20
NUMBER_OF_ROBOTS: 2
START_TARGET_INDEXES: 1, 2
NEIGHBORHOOD_RADIUS: 2
EDGE_WEIGHT_TYPE: EUC_2D
NODE_COORD_SECTION
1 15.0 -21.0
2 -5.0 -25.0
3 -8.9 -29.9
4 -7.5 -26.7
5 25.8 -0.1
6 20.3 -2.9
7 -7.1 -13.6
8 28.5 12.0
9 -0.3 9.6
10 6.1 -4.7
11 -18.8 10.5
12 -17.5 11.7
13 25.2 -12.2
14 30.3 17.3
15 25.4 7.3
16 4.1 9.7
17 -36.9 -1.6
18 -6.5 -0.4
19 13.3 12.1
20 -28.7 -7.3
EOF
